(declare-fun temp839_2 () (_ BitVec 64))
(declare-fun temp839_1 () (_ BitVec 64))
(declare-fun temp839_3 () (_ BitVec 64))
(declare-fun var288560 () (_ BitVec 64))
(declare-fun temp839_5 () (_ BitVec 64))
(declare-fun temp839_4 () (_ BitVec 64))
(declare-fun temp839_6 () (_ BitVec 64))
(declare-fun var852463 () (_ BitVec 64))
(declare-fun temp839_7 () (_ BitVec 64))
(declare-fun temp839_8 () (_ BitVec 64))
(declare-fun var1520241 () (_ BitVec 64))
(declare-fun var1651313 () (_ BitVec 64))
(declare-fun temp839_9 () (_ BitVec 64))
(declare-fun var1712971 () (_ BitVec 64))
(declare-fun temp839_10 () (_ BitVec 64))
(declare-fun var1979015 () (_ BitVec 64))
(declare-fun var1979024 () (_ BitVec 64))
(declare-fun var2101624 () (_ BitVec 64))
(declare-fun var2699889 () (_ BitVec 64))
(declare-fun var2962033 () (_ BitVec 64))
(declare-fun temp839_11 () (_ BitVec 64))
(declare-fun var3093127 () (_ BitVec 64))
(declare-fun var3093136 () (_ BitVec 64))
(declare-fun var3215736 () (_ BitVec 64))
(declare-fun temp839_12 () (_ BitVec 64))
(declare-fun var4007452 () (_ BitVec 64))
(declare-fun var4007436 () (_ BitVec 64))
(declare-fun var864100 () (_ BitVec 64))
(assert (= temp839_2 #x00000000000003cb))
(assert (= temp839_1 temp839_2))
(assert (= temp839_3 #x0000000000000000))
(assert (= var288560 temp839_3))
(assert (= temp839_5 #x0000000000000002))
(assert (= temp839_4 temp839_5))
(assert (= temp839_6 #x0000000000000000))
(assert (= var852463 temp839_6))
(assert (= temp839_7 #x0000000000000000))
(assert (= var852463 temp839_7))
(assert (= temp839_8 #x0000000000000000))
(assert (= var852463 temp839_8))
(assert (= var1520241 var852463))
(assert (= var1651313 var852463))
(assert (= temp839_9 #xffffffffffffffff))
(assert (= var1712971 temp839_9))
(assert (= temp839_10 #x0000000000000001))
(assert (= var1979015 temp839_10))
(assert (= var1979024 var1979015))
(assert (= var2101624 var1979024))
(assert (= var2699889 var852463))
(assert (= var2962033 var852463))
(assert (= temp839_11 #x0000000000000001))
(assert (= var3093127 temp839_11))
(assert (= var3093136 var3093127))
(assert (= var3215736 var3093136))
(assert (= temp839_12 #x0000000000000000))
(assert (= var4007452 temp839_12))
(assert (= var4007436 var4007452))
(assert (= var864100 var4007436))






